% Archivo de datos
r=0.8;     %porcentaje límite para considerar régimen alto 
dr=3;    %número de días de espera para evitar el  régimen alto  
n=5;      %Número de días de producción
s=3;      %Número de clientes
Cn=220;    %Costo de producción de central nuclear
Ch=20;    %Costo de producción de central hidroeléctrica
Ct=100;    %Costo de producción de central térmica
Pn=1900;  %Max. producción diaria de central nuclear
Ph=2000;   %Max. producción diaria de central hidroeléctrica
Pt=2000;   %Max. producción diaria de  central térmica
D=[|1900,1800,1800
   |2000,1800,1800
   |1800,1900,1800
   |2000,1900,1500
   |1600,1800,1800|];      %Demanda diaria